NAME : kroA100.best.tour
TYPE : TOUR
DIMENSION : 100
TOUR_SECTION
1
63
6
49
90
53
19
75
92
8
42
89
31
80
56
97
4
65
26
66
70
22
94
16
88
79
18
24
38
99
36
84
10
72
21
74
59
17
15
11
32
47
91
45
98
23
77
60
62
35
86
27
20
12
55
83
34
7
9
57
87
51
61
25
81
69
73
44
50
68
85
39
30
29
46
43
3
14
71
41
100
48
52
78
96
5
37
33
76
13
95
82
2
54
40
64
67
58
28
93
EOF